* #variable= 389 #constraint= 304
* Constraints for genrand_real1
min:  +400 x46 +1400 x175 +1800 x319 +400 x320 +400 x321 +400 x322 +400 x323 +400 x324 +400 x325 -1 x176 -1 x1 -1 x31 -1 x326 -1 x327 -1 x328 -1 x329 -1 x330 -1 x331 -1 x332 -1 x333 -1 x334 -1 x335 -1 x336 -1 x337 -1 x338 -1 x339 -1 x340 -1 x341 -1 x342 -1 x343 -1 x344 -1 x345 -1 x346 -1 x347 -1 x348 -1 x349 -1 x350 -1 x351 -1 x352 -1 x353 -1 x354 -1 x355 -1 x356 -1 x357 -1 x358 -1 x359 -1 x360 -1 x361 -1 x362 -1 x363 -1 x364 -1 x365 -1 x366 -1 x367 -1 x368 -1 x369 -1 x370 -1 x371 -1 x372 -1 x373 -1 x374 -1 x375 -1 x376 -1 x377 -1 x378 -1 x379 -1 x380 -1 x381 -1 x382 -1 x383 -1 x384 -1 x385 -1 x386 -1 x387 -1 x388 -1 x389;
* Callee-save Registers
 -1 x3 -1 x16 -1 x17 -1 x18 -1 x19 -1 x20 -1 x21 -1 x22 -1 x23 -1 x24 -1 x25 -1 x26 -1 x27 -1 x28 -1 x29 -1 x30 -1 x31 -1 x32 -1 x33 -1 x34 -1 x35 -1 x36 -1 x37 -1 x38 -1 x39 -1 x40 -1 x41 -1 x42 -1 x43 -1 x44 -1 x45 -1 x143 -1 x144 -1 x145 -1 x146 -1 x147 -1 x148 -1 x149 -1 x150 -1 x151 -1 x152 -1 x153 -1 x154 -1 x155 -1 x156 -1 x157 -1 x158 -1 x159 -1 x160 -1 x161 -1 x162 -1 x163 -1 x164 -1 x165 -1 x166 -1 x167 -1 x168 -1 x169 -1 x170 -1 x171 -1 x172 -1 x173 -1 x174 -1 x95 -1 x96 -1 x97 -1 x98 -1 x99 -1 x100 -1 x101 -1 x102 -1 x103 -1 x104 -1 x105 -1 x106 -1 x107 -1 x108 -1 x109 -1 x110 -1 x111 -1 x112 -1 x113 -1 x114 -1 x115 -1 x116 -1 x117 -1 x118 -1 x119 -1 x120 -1 x121 -1 x122 -1 x123 -1 x124 -1 x125 -1 x126 -1 x127 -1 x128 -1 x129 -1 x130 -1 x131 -1 x132 -1 x133 -1 x134 -1 x135 -1 x136 -1 x137 -1 x138 -1 x139 -1 x140 -1 x141 -1 x142 -1 x143 -1 x144 -1 x145 -1 x146 -1 x147 -1 x148 -1 x149 -1 x150 -1 x151 -1 x152 -1 x153 -1 x154 -1 x155 -1 x156 -1 x157 -1 x158 -1 x159 -1 x160 -1 x161 -1 x162 -1 x163 -1 x164 -1 x165 -1 x166 -1 x167 -1 x168 -1 x169 -1 x170 -1 x171 -1 x172 -1 x173 -1 x174 -1 x271 -1 x272 -1 x273 -1 x274 -1 x275 -1 x276 -1 x277 -1 x278 -1 x279 -1 x280 -1 x281 -1 x282 -1 x283 -1 x284 -1 x285 -1 x286 -1 x287 -1 x288 -1 x289 -1 x290 -1 x291 -1 x292 -1 x293 -1 x294 -1 x295 -1 x296 -1 x297 -1 x298 -1 x299 -1 x300 -1 x301 -1 x302 -1 x303 -1 x304 -1 x305 -1 x306 -1 x307 -1 x308 -1 x309 -1 x310 -1 x311 -1 x312 -1 x313 -1 x314 -1 x315 -1 x316 -1 x317 -1 x318 -1 x240 -1 x241 -1 x242 -1 x243 -1 x244 -1 x245 -1 x246 -1 x247 -1 x248 -1 x249 -1 x250 -1 x251 -1 x252 -1 x253 -1 x254 -1 x255 -1 x256 -1 x257 -1 x258 -1 x259 -1 x260 -1 x261 -1 x262 -1 x263 -1 x264 -1 x265 -1 x266 -1 x267 -1 x268 -1 x269 -1 x270 -1 x271 -1 x272 -1 x273 -1 x274 -1 x275 -1 x276 -1 x277 -1 x278 -1 x279 -1 x280 -1 x281 -1 x282 -1 x283 -1 x284 -1 x285 -1 x286 -1 x287 -1 x288 -1 x289 -1 x290 -1 x291 -1 x292 -1 x293 -1 x294 -1 x295 -1 x296 -1 x297 -1 x298 -1 x299 -1 x300 -1 x301 -1 x302 -1 x303 -1 x304 -1 x305 -1 x306 -1 x307 -1 x308 -1 x309 -1 x310 -1 x311 -1 x312 -1 x313 -1 x314 -1 x315 -1 x316 -1 x317 -1 x318 +270 x320 >= 0;
 -1 ~x3 -1 ~x16 -1 ~x17 -1 ~x18 -1 ~x19 -1 ~x20 -1 ~x21 -1 ~x22 -1 ~x23 -1 ~x24 -1 ~x25 -1 ~x26 -1 ~x27 -1 ~x28 -1 ~x29 -1 ~x30 -1 ~x31 -1 ~x32 -1 ~x33 -1 ~x34 -1 ~x35 -1 ~x36 -1 ~x37 -1 ~x38 -1 ~x39 -1 ~x40 -1 ~x41 -1 ~x42 -1 ~x43 -1 ~x44 -1 ~x45 -1 ~x143 -1 ~x144 -1 ~x145 -1 ~x146 -1 ~x147 -1 ~x148 -1 ~x149 -1 ~x150 -1 ~x151 -1 ~x152 -1 ~x153 -1 ~x154 -1 ~x155 -1 ~x156 -1 ~x157 -1 ~x158 -1 ~x159 -1 ~x160 -1 ~x161 -1 ~x162 -1 ~x163 -1 ~x164 -1 ~x165 -1 ~x166 -1 ~x167 -1 ~x168 -1 ~x169 -1 ~x170 -1 ~x171 -1 ~x172 -1 ~x173 -1 ~x174 -1 ~x95 -1 ~x96 -1 ~x97 -1 ~x98 -1 ~x99 -1 ~x100 -1 ~x101 -1 ~x102 -1 ~x103 -1 ~x104 -1 ~x105 -1 ~x106 -1 ~x107 -1 ~x108 -1 ~x109 -1 ~x110 -1 ~x111 -1 ~x112 -1 ~x113 -1 ~x114 -1 ~x115 -1 ~x116 -1 ~x117 -1 ~x118 -1 ~x119 -1 ~x120 -1 ~x121 -1 ~x122 -1 ~x123 -1 ~x124 -1 ~x125 -1 ~x126 -1 ~x127 -1 ~x128 -1 ~x129 -1 ~x130 -1 ~x131 -1 ~x132 -1 ~x133 -1 ~x134 -1 ~x135 -1 ~x136 -1 ~x137 -1 ~x138 -1 ~x139 -1 ~x140 -1 ~x141 -1 ~x142 -1 ~x143 -1 ~x144 -1 ~x145 -1 ~x146 -1 ~x147 -1 ~x148 -1 ~x149 -1 ~x150 -1 ~x151 -1 ~x152 -1 ~x153 -1 ~x154 -1 ~x155 -1 ~x156 -1 ~x157 -1 ~x158 -1 ~x159 -1 ~x160 -1 ~x161 -1 ~x162 -1 ~x163 -1 ~x164 -1 ~x165 -1 ~x166 -1 ~x167 -1 ~x168 -1 ~x169 -1 ~x170 -1 ~x171 -1 ~x172 -1 ~x173 -1 ~x174 -1 ~x271 -1 ~x272 -1 ~x273 -1 ~x274 -1 ~x275 -1 ~x276 -1 ~x277 -1 ~x278 -1 ~x279 -1 ~x280 -1 ~x281 -1 ~x282 -1 ~x283 -1 ~x284 -1 ~x285 -1 ~x286 -1 ~x287 -1 ~x288 -1 ~x289 -1 ~x290 -1 ~x291 -1 ~x292 -1 ~x293 -1 ~x294 -1 ~x295 -1 ~x296 -1 ~x297 -1 ~x298 -1 ~x299 -1 ~x300 -1 ~x301 -1 ~x302 -1 ~x303 -1 ~x304 -1 ~x305 -1 ~x306 -1 ~x307 -1 ~x308 -1 ~x309 -1 ~x310 -1 ~x311 -1 ~x312 -1 ~x313 -1 ~x314 -1 ~x315 -1 ~x316 -1 ~x317 -1 ~x318 -1 ~x240 -1 ~x241 -1 ~x242 -1 ~x243 -1 ~x244 -1 ~x245 -1 ~x246 -1 ~x247 -1 ~x248 -1 ~x249 -1 ~x250 -1 ~x251 -1 ~x252 -1 ~x253 -1 ~x254 -1 ~x255 -1 ~x256 -1 ~x257 -1 ~x258 -1 ~x259 -1 ~x260 -1 ~x261 -1 ~x262 -1 ~x263 -1 ~x264 -1 ~x265 -1 ~x266 -1 ~x267 -1 ~x268 -1 ~x269 -1 ~x270 -1 ~x271 -1 ~x272 -1 ~x273 -1 ~x274 -1 ~x275 -1 ~x276 -1 ~x277 -1 ~x278 -1 ~x279 -1 ~x280 -1 ~x281 -1 ~x282 -1 ~x283 -1 ~x284 -1 ~x285 -1 ~x286 -1 ~x287 -1 ~x288 -1 ~x289 -1 ~x290 -1 ~x291 -1 ~x292 -1 ~x293 -1 ~x294 -1 ~x295 -1 ~x296 -1 ~x297 -1 ~x298 -1 ~x299 -1 ~x300 -1 ~x301 -1 ~x302 -1 ~x303 -1 ~x304 -1 ~x305 -1 ~x306 -1 ~x307 -1 ~x308 -1 ~x309 -1 ~x310 -1 ~x311 -1 ~x312 -1 ~x313 -1 ~x314 -1 ~x315 -1 ~x316 -1 ~x317 -1 ~x318 +270 ~x320 >= -269;
 -1 x12 -1 x16 -1 x17 -1 x18 -1 x19 -1 x20 -1 x21 -1 x22 -1 x23 -1 x24 -1 x25 -1 x26 -1 x27 -1 x28 -1 x29 -1 x30 -1 x31 -1 x32 -1 x33 -1 x34 -1 x35 -1 x36 -1 x37 -1 x38 -1 x39 -1 x40 -1 x41 -1 x42 -1 x43 -1 x44 -1 x45 -1 x143 -1 x144 -1 x145 -1 x146 -1 x147 -1 x148 -1 x149 -1 x150 -1 x151 -1 x152 -1 x153 -1 x154 -1 x155 -1 x156 -1 x157 -1 x158 -1 x159 -1 x160 -1 x161 -1 x162 -1 x163 -1 x164 -1 x165 -1 x166 -1 x167 -1 x168 -1 x169 -1 x170 -1 x171 -1 x172 -1 x173 -1 x174 -1 x95 -1 x96 -1 x97 -1 x98 -1 x99 -1 x100 -1 x101 -1 x102 -1 x103 -1 x104 -1 x105 -1 x106 -1 x107 -1 x108 -1 x109 -1 x110 -1 x111 -1 x112 -1 x113 -1 x114 -1 x115 -1 x116 -1 x117 -1 x118 -1 x119 -1 x120 -1 x121 -1 x122 -1 x123 -1 x124 -1 x125 -1 x126 -1 x127 -1 x128 -1 x129 -1 x130 -1 x131 -1 x132 -1 x133 -1 x134 -1 x135 -1 x136 -1 x137 -1 x138 -1 x139 -1 x140 -1 x141 -1 x142 -1 x143 -1 x144 -1 x145 -1 x146 -1 x147 -1 x148 -1 x149 -1 x150 -1 x151 -1 x152 -1 x153 -1 x154 -1 x155 -1 x156 -1 x157 -1 x158 -1 x159 -1 x160 -1 x161 -1 x162 -1 x163 -1 x164 -1 x165 -1 x166 -1 x167 -1 x168 -1 x169 -1 x170 -1 x171 -1 x172 -1 x173 -1 x174 -1 x271 -1 x272 -1 x273 -1 x274 -1 x275 -1 x276 -1 x277 -1 x278 -1 x279 -1 x280 -1 x281 -1 x282 -1 x283 -1 x284 -1 x285 -1 x286 -1 x287 -1 x288 -1 x289 -1 x290 -1 x291 -1 x292 -1 x293 -1 x294 -1 x295 -1 x296 -1 x297 -1 x298 -1 x299 -1 x300 -1 x301 -1 x302 -1 x303 -1 x304 -1 x305 -1 x306 -1 x307 -1 x308 -1 x309 -1 x310 -1 x311 -1 x312 -1 x313 -1 x314 -1 x315 -1 x316 -1 x317 -1 x318 -1 x240 -1 x241 -1 x242 -1 x243 -1 x244 -1 x245 -1 x246 -1 x247 -1 x248 -1 x249 -1 x250 -1 x251 -1 x252 -1 x253 -1 x254 -1 x255 -1 x256 -1 x257 -1 x258 -1 x259 -1 x260 -1 x261 -1 x262 -1 x263 -1 x264 -1 x265 -1 x266 -1 x267 -1 x268 -1 x269 -1 x270 -1 x271 -1 x272 -1 x273 -1 x274 -1 x275 -1 x276 -1 x277 -1 x278 -1 x279 -1 x280 -1 x281 -1 x282 -1 x283 -1 x284 -1 x285 -1 x286 -1 x287 -1 x288 -1 x289 -1 x290 -1 x291 -1 x292 -1 x293 -1 x294 -1 x295 -1 x296 -1 x297 -1 x298 -1 x299 -1 x300 -1 x301 -1 x302 -1 x303 -1 x304 -1 x305 -1 x306 -1 x307 -1 x308 -1 x309 -1 x310 -1 x311 -1 x312 -1 x313 -1 x314 -1 x315 -1 x316 -1 x317 -1 x318 +270 x321 >= 0;
 -1 ~x12 -1 ~x16 -1 ~x17 -1 ~x18 -1 ~x19 -1 ~x20 -1 ~x21 -1 ~x22 -1 ~x23 -1 ~x24 -1 ~x25 -1 ~x26 -1 ~x27 -1 ~x28 -1 ~x29 -1 ~x30 -1 ~x31 -1 ~x32 -1 ~x33 -1 ~x34 -1 ~x35 -1 ~x36 -1 ~x37 -1 ~x38 -1 ~x39 -1 ~x40 -1 ~x41 -1 ~x42 -1 ~x43 -1 ~x44 -1 ~x45 -1 ~x143 -1 ~x144 -1 ~x145 -1 ~x146 -1 ~x147 -1 ~x148 -1 ~x149 -1 ~x150 -1 ~x151 -1 ~x152 -1 ~x153 -1 ~x154 -1 ~x155 -1 ~x156 -1 ~x157 -1 ~x158 -1 ~x159 -1 ~x160 -1 ~x161 -1 ~x162 -1 ~x163 -1 ~x164 -1 ~x165 -1 ~x166 -1 ~x167 -1 ~x168 -1 ~x169 -1 ~x170 -1 ~x171 -1 ~x172 -1 ~x173 -1 ~x174 -1 ~x95 -1 ~x96 -1 ~x97 -1 ~x98 -1 ~x99 -1 ~x100 -1 ~x101 -1 ~x102 -1 ~x103 -1 ~x104 -1 ~x105 -1 ~x106 -1 ~x107 -1 ~x108 -1 ~x109 -1 ~x110 -1 ~x111 -1 ~x112 -1 ~x113 -1 ~x114 -1 ~x115 -1 ~x116 -1 ~x117 -1 ~x118 -1 ~x119 -1 ~x120 -1 ~x121 -1 ~x122 -1 ~x123 -1 ~x124 -1 ~x125 -1 ~x126 -1 ~x127 -1 ~x128 -1 ~x129 -1 ~x130 -1 ~x131 -1 ~x132 -1 ~x133 -1 ~x134 -1 ~x135 -1 ~x136 -1 ~x137 -1 ~x138 -1 ~x139 -1 ~x140 -1 ~x141 -1 ~x142 -1 ~x143 -1 ~x144 -1 ~x145 -1 ~x146 -1 ~x147 -1 ~x148 -1 ~x149 -1 ~x150 -1 ~x151 -1 ~x152 -1 ~x153 -1 ~x154 -1 ~x155 -1 ~x156 -1 ~x157 -1 ~x158 -1 ~x159 -1 ~x160 -1 ~x161 -1 ~x162 -1 ~x163 -1 ~x164 -1 ~x165 -1 ~x166 -1 ~x167 -1 ~x168 -1 ~x169 -1 ~x170 -1 ~x171 -1 ~x172 -1 ~x173 -1 ~x174 -1 ~x271 -1 ~x272 -1 ~x273 -1 ~x274 -1 ~x275 -1 ~x276 -1 ~x277 -1 ~x278 -1 ~x279 -1 ~x280 -1 ~x281 -1 ~x282 -1 ~x283 -1 ~x284 -1 ~x285 -1 ~x286 -1 ~x287 -1 ~x288 -1 ~x289 -1 ~x290 -1 ~x291 -1 ~x292 -1 ~x293 -1 ~x294 -1 ~x295 -1 ~x296 -1 ~x297 -1 ~x298 -1 ~x299 -1 ~x300 -1 ~x301 -1 ~x302 -1 ~x303 -1 ~x304 -1 ~x305 -1 ~x306 -1 ~x307 -1 ~x308 -1 ~x309 -1 ~x310 -1 ~x311 -1 ~x312 -1 ~x313 -1 ~x314 -1 ~x315 -1 ~x316 -1 ~x317 -1 ~x318 -1 ~x240 -1 ~x241 -1 ~x242 -1 ~x243 -1 ~x244 -1 ~x245 -1 ~x246 -1 ~x247 -1 ~x248 -1 ~x249 -1 ~x250 -1 ~x251 -1 ~x252 -1 ~x253 -1 ~x254 -1 ~x255 -1 ~x256 -1 ~x257 -1 ~x258 -1 ~x259 -1 ~x260 -1 ~x261 -1 ~x262 -1 ~x263 -1 ~x264 -1 ~x265 -1 ~x266 -1 ~x267 -1 ~x268 -1 ~x269 -1 ~x270 -1 ~x271 -1 ~x272 -1 ~x273 -1 ~x274 -1 ~x275 -1 ~x276 -1 ~x277 -1 ~x278 -1 ~x279 -1 ~x280 -1 ~x281 -1 ~x282 -1 ~x283 -1 ~x284 -1 ~x285 -1 ~x286 -1 ~x287 -1 ~x288 -1 ~x289 -1 ~x290 -1 ~x291 -1 ~x292 -1 ~x293 -1 ~x294 -1 ~x295 -1 ~x296 -1 ~x297 -1 ~x298 -1 ~x299 -1 ~x300 -1 ~x301 -1 ~x302 -1 ~x303 -1 ~x304 -1 ~x305 -1 ~x306 -1 ~x307 -1 ~x308 -1 ~x309 -1 ~x310 -1 ~x311 -1 ~x312 -1 ~x313 -1 ~x314 -1 ~x315 -1 ~x316 -1 ~x317 -1 ~x318 +270 ~x321 >= -269;
 -1 x13 -1 x16 -1 x17 -1 x18 -1 x19 -1 x20 -1 x21 -1 x22 -1 x23 -1 x24 -1 x25 -1 x26 -1 x27 -1 x28 -1 x29 -1 x30 -1 x31 -1 x32 -1 x33 -1 x34 -1 x35 -1 x36 -1 x37 -1 x38 -1 x39 -1 x40 -1 x41 -1 x42 -1 x43 -1 x44 -1 x45 -1 x143 -1 x144 -1 x145 -1 x146 -1 x147 -1 x148 -1 x149 -1 x150 -1 x151 -1 x152 -1 x153 -1 x154 -1 x155 -1 x156 -1 x157 -1 x158 -1 x159 -1 x160 -1 x161 -1 x162 -1 x163 -1 x164 -1 x165 -1 x166 -1 x167 -1 x168 -1 x169 -1 x170 -1 x171 -1 x172 -1 x173 -1 x174 -1 x95 -1 x96 -1 x97 -1 x98 -1 x99 -1 x100 -1 x101 -1 x102 -1 x103 -1 x104 -1 x105 -1 x106 -1 x107 -1 x108 -1 x109 -1 x110 -1 x111 -1 x112 -1 x113 -1 x114 -1 x115 -1 x116 -1 x117 -1 x118 -1 x119 -1 x120 -1 x121 -1 x122 -1 x123 -1 x124 -1 x125 -1 x126 -1 x127 -1 x128 -1 x129 -1 x130 -1 x131 -1 x132 -1 x133 -1 x134 -1 x135 -1 x136 -1 x137 -1 x138 -1 x139 -1 x140 -1 x141 -1 x142 -1 x143 -1 x144 -1 x145 -1 x146 -1 x147 -1 x148 -1 x149 -1 x150 -1 x151 -1 x152 -1 x153 -1 x154 -1 x155 -1 x156 -1 x157 -1 x158 -1 x159 -1 x160 -1 x161 -1 x162 -1 x163 -1 x164 -1 x165 -1 x166 -1 x167 -1 x168 -1 x169 -1 x170 -1 x171 -1 x172 -1 x173 -1 x174 -1 x271 -1 x272 -1 x273 -1 x274 -1 x275 -1 x276 -1 x277 -1 x278 -1 x279 -1 x280 -1 x281 -1 x282 -1 x283 -1 x284 -1 x285 -1 x286 -1 x287 -1 x288 -1 x289 -1 x290 -1 x291 -1 x292 -1 x293 -1 x294 -1 x295 -1 x296 -1 x297 -1 x298 -1 x299 -1 x300 -1 x301 -1 x302 -1 x303 -1 x304 -1 x305 -1 x306 -1 x307 -1 x308 -1 x309 -1 x310 -1 x311 -1 x312 -1 x313 -1 x314 -1 x315 -1 x316 -1 x317 -1 x318 -1 x240 -1 x241 -1 x242 -1 x243 -1 x244 -1 x245 -1 x246 -1 x247 -1 x248 -1 x249 -1 x250 -1 x251 -1 x252 -1 x253 -1 x254 -1 x255 -1 x256 -1 x257 -1 x258 -1 x259 -1 x260 -1 x261 -1 x262 -1 x263 -1 x264 -1 x265 -1 x266 -1 x267 -1 x268 -1 x269 -1 x270 -1 x271 -1 x272 -1 x273 -1 x274 -1 x275 -1 x276 -1 x277 -1 x278 -1 x279 -1 x280 -1 x281 -1 x282 -1 x283 -1 x284 -1 x285 -1 x286 -1 x287 -1 x288 -1 x289 -1 x290 -1 x291 -1 x292 -1 x293 -1 x294 -1 x295 -1 x296 -1 x297 -1 x298 -1 x299 -1 x300 -1 x301 -1 x302 -1 x303 -1 x304 -1 x305 -1 x306 -1 x307 -1 x308 -1 x309 -1 x310 -1 x311 -1 x312 -1 x313 -1 x314 -1 x315 -1 x316 -1 x317 -1 x318 +270 x322 >= 0;
 -1 ~x13 -1 ~x16 -1 ~x17 -1 ~x18 -1 ~x19 -1 ~x20 -1 ~x21 -1 ~x22 -1 ~x23 -1 ~x24 -1 ~x25 -1 ~x26 -1 ~x27 -1 ~x28 -1 ~x29 -1 ~x30 -1 ~x31 -1 ~x32 -1 ~x33 -1 ~x34 -1 ~x35 -1 ~x36 -1 ~x37 -1 ~x38 -1 ~x39 -1 ~x40 -1 ~x41 -1 ~x42 -1 ~x43 -1 ~x44 -1 ~x45 -1 ~x143 -1 ~x144 -1 ~x145 -1 ~x146 -1 ~x147 -1 ~x148 -1 ~x149 -1 ~x150 -1 ~x151 -1 ~x152 -1 ~x153 -1 ~x154 -1 ~x155 -1 ~x156 -1 ~x157 -1 ~x158 -1 ~x159 -1 ~x160 -1 ~x161 -1 ~x162 -1 ~x163 -1 ~x164 -1 ~x165 -1 ~x166 -1 ~x167 -1 ~x168 -1 ~x169 -1 ~x170 -1 ~x171 -1 ~x172 -1 ~x173 -1 ~x174 -1 ~x95 -1 ~x96 -1 ~x97 -1 ~x98 -1 ~x99 -1 ~x100 -1 ~x101 -1 ~x102 -1 ~x103 -1 ~x104 -1 ~x105 -1 ~x106 -1 ~x107 -1 ~x108 -1 ~x109 -1 ~x110 -1 ~x111 -1 ~x112 -1 ~x113 -1 ~x114 -1 ~x115 -1 ~x116 -1 ~x117 -1 ~x118 -1 ~x119 -1 ~x120 -1 ~x121 -1 ~x122 -1 ~x123 -1 ~x124 -1 ~x125 -1 ~x126 -1 ~x127 -1 ~x128 -1 ~x129 -1 ~x130 -1 ~x131 -1 ~x132 -1 ~x133 -1 ~x134 -1 ~x135 -1 ~x136 -1 ~x137 -1 ~x138 -1 ~x139 -1 ~x140 -1 ~x141 -1 ~x142 -1 ~x143 -1 ~x144 -1 ~x145 -1 ~x146 -1 ~x147 -1 ~x148 -1 ~x149 -1 ~x150 -1 ~x151 -1 ~x152 -1 ~x153 -1 ~x154 -1 ~x155 -1 ~x156 -1 ~x157 -1 ~x158 -1 ~x159 -1 ~x160 -1 ~x161 -1 ~x162 -1 ~x163 -1 ~x164 -1 ~x165 -1 ~x166 -1 ~x167 -1 ~x168 -1 ~x169 -1 ~x170 -1 ~x171 -1 ~x172 -1 ~x173 -1 ~x174 -1 ~x271 -1 ~x272 -1 ~x273 -1 ~x274 -1 ~x275 -1 ~x276 -1 ~x277 -1 ~x278 -1 ~x279 -1 ~x280 -1 ~x281 -1 ~x282 -1 ~x283 -1 ~x284 -1 ~x285 -1 ~x286 -1 ~x287 -1 ~x288 -1 ~x289 -1 ~x290 -1 ~x291 -1 ~x292 -1 ~x293 -1 ~x294 -1 ~x295 -1 ~x296 -1 ~x297 -1 ~x298 -1 ~x299 -1 ~x300 -1 ~x301 -1 ~x302 -1 ~x303 -1 ~x304 -1 ~x305 -1 ~x306 -1 ~x307 -1 ~x308 -1 ~x309 -1 ~x310 -1 ~x311 -1 ~x312 -1 ~x313 -1 ~x314 -1 ~x315 -1 ~x316 -1 ~x317 -1 ~x318 -1 ~x240 -1 ~x241 -1 ~x242 -1 ~x243 -1 ~x244 -1 ~x245 -1 ~x246 -1 ~x247 -1 ~x248 -1 ~x249 -1 ~x250 -1 ~x251 -1 ~x252 -1 ~x253 -1 ~x254 -1 ~x255 -1 ~x256 -1 ~x257 -1 ~x258 -1 ~x259 -1 ~x260 -1 ~x261 -1 ~x262 -1 ~x263 -1 ~x264 -1 ~x265 -1 ~x266 -1 ~x267 -1 ~x268 -1 ~x269 -1 ~x270 -1 ~x271 -1 ~x272 -1 ~x273 -1 ~x274 -1 ~x275 -1 ~x276 -1 ~x277 -1 ~x278 -1 ~x279 -1 ~x280 -1 ~x281 -1 ~x282 -1 ~x283 -1 ~x284 -1 ~x285 -1 ~x286 -1 ~x287 -1 ~x288 -1 ~x289 -1 ~x290 -1 ~x291 -1 ~x292 -1 ~x293 -1 ~x294 -1 ~x295 -1 ~x296 -1 ~x297 -1 ~x298 -1 ~x299 -1 ~x300 -1 ~x301 -1 ~x302 -1 ~x303 -1 ~x304 -1 ~x305 -1 ~x306 -1 ~x307 -1 ~x308 -1 ~x309 -1 ~x310 -1 ~x311 -1 ~x312 -1 ~x313 -1 ~x314 -1 ~x315 -1 ~x316 -1 ~x317 -1 ~x318 +270 ~x322 >= -269;
 -1 x14 -1 x16 -1 x17 -1 x18 -1 x19 -1 x20 -1 x21 -1 x22 -1 x23 -1 x24 -1 x25 -1 x26 -1 x27 -1 x28 -1 x29 -1 x30 -1 x31 -1 x32 -1 x33 -1 x34 -1 x35 -1 x36 -1 x37 -1 x38 -1 x39 -1 x40 -1 x41 -1 x42 -1 x43 -1 x44 -1 x45 -1 x143 -1 x144 -1 x145 -1 x146 -1 x147 -1 x148 -1 x149 -1 x150 -1 x151 -1 x152 -1 x153 -1 x154 -1 x155 -1 x156 -1 x157 -1 x158 -1 x159 -1 x160 -1 x161 -1 x162 -1 x163 -1 x164 -1 x165 -1 x166 -1 x167 -1 x168 -1 x169 -1 x170 -1 x171 -1 x172 -1 x173 -1 x174 -1 x95 -1 x96 -1 x97 -1 x98 -1 x99 -1 x100 -1 x101 -1 x102 -1 x103 -1 x104 -1 x105 -1 x106 -1 x107 -1 x108 -1 x109 -1 x110 -1 x111 -1 x112 -1 x113 -1 x114 -1 x115 -1 x116 -1 x117 -1 x118 -1 x119 -1 x120 -1 x121 -1 x122 -1 x123 -1 x124 -1 x125 -1 x126 -1 x127 -1 x128 -1 x129 -1 x130 -1 x131 -1 x132 -1 x133 -1 x134 -1 x135 -1 x136 -1 x137 -1 x138 -1 x139 -1 x140 -1 x141 -1 x142 -1 x143 -1 x144 -1 x145 -1 x146 -1 x147 -1 x148 -1 x149 -1 x150 -1 x151 -1 x152 -1 x153 -1 x154 -1 x155 -1 x156 -1 x157 -1 x158 -1 x159 -1 x160 -1 x161 -1 x162 -1 x163 -1 x164 -1 x165 -1 x166 -1 x167 -1 x168 -1 x169 -1 x170 -1 x171 -1 x172 -1 x173 -1 x174 -1 x271 -1 x272 -1 x273 -1 x274 -1 x275 -1 x276 -1 x277 -1 x278 -1 x279 -1 x280 -1 x281 -1 x282 -1 x283 -1 x284 -1 x285 -1 x286 -1 x287 -1 x288 -1 x289 -1 x290 -1 x291 -1 x292 -1 x293 -1 x294 -1 x295 -1 x296 -1 x297 -1 x298 -1 x299 -1 x300 -1 x301 -1 x302 -1 x303 -1 x304 -1 x305 -1 x306 -1 x307 -1 x308 -1 x309 -1 x310 -1 x311 -1 x312 -1 x313 -1 x314 -1 x315 -1 x316 -1 x317 -1 x318 -1 x240 -1 x241 -1 x242 -1 x243 -1 x244 -1 x245 -1 x246 -1 x247 -1 x248 -1 x249 -1 x250 -1 x251 -1 x252 -1 x253 -1 x254 -1 x255 -1 x256 -1 x257 -1 x258 -1 x259 -1 x260 -1 x261 -1 x262 -1 x263 -1 x264 -1 x265 -1 x266 -1 x267 -1 x268 -1 x269 -1 x270 -1 x271 -1 x272 -1 x273 -1 x274 -1 x275 -1 x276 -1 x277 -1 x278 -1 x279 -1 x280 -1 x281 -1 x282 -1 x283 -1 x284 -1 x285 -1 x286 -1 x287 -1 x288 -1 x289 -1 x290 -1 x291 -1 x292 -1 x293 -1 x294 -1 x295 -1 x296 -1 x297 -1 x298 -1 x299 -1 x300 -1 x301 -1 x302 -1 x303 -1 x304 -1 x305 -1 x306 -1 x307 -1 x308 -1 x309 -1 x310 -1 x311 -1 x312 -1 x313 -1 x314 -1 x315 -1 x316 -1 x317 -1 x318 +270 x323 >= 0;
 -1 ~x14 -1 ~x16 -1 ~x17 -1 ~x18 -1 ~x19 -1 ~x20 -1 ~x21 -1 ~x22 -1 ~x23 -1 ~x24 -1 ~x25 -1 ~x26 -1 ~x27 -1 ~x28 -1 ~x29 -1 ~x30 -1 ~x31 -1 ~x32 -1 ~x33 -1 ~x34 -1 ~x35 -1 ~x36 -1 ~x37 -1 ~x38 -1 ~x39 -1 ~x40 -1 ~x41 -1 ~x42 -1 ~x43 -1 ~x44 -1 ~x45 -1 ~x143 -1 ~x144 -1 ~x145 -1 ~x146 -1 ~x147 -1 ~x148 -1 ~x149 -1 ~x150 -1 ~x151 -1 ~x152 -1 ~x153 -1 ~x154 -1 ~x155 -1 ~x156 -1 ~x157 -1 ~x158 -1 ~x159 -1 ~x160 -1 ~x161 -1 ~x162 -1 ~x163 -1 ~x164 -1 ~x165 -1 ~x166 -1 ~x167 -1 ~x168 -1 ~x169 -1 ~x170 -1 ~x171 -1 ~x172 -1 ~x173 -1 ~x174 -1 ~x95 -1 ~x96 -1 ~x97 -1 ~x98 -1 ~x99 -1 ~x100 -1 ~x101 -1 ~x102 -1 ~x103 -1 ~x104 -1 ~x105 -1 ~x106 -1 ~x107 -1 ~x108 -1 ~x109 -1 ~x110 -1 ~x111 -1 ~x112 -1 ~x113 -1 ~x114 -1 ~x115 -1 ~x116 -1 ~x117 -1 ~x118 -1 ~x119 -1 ~x120 -1 ~x121 -1 ~x122 -1 ~x123 -1 ~x124 -1 ~x125 -1 ~x126 -1 ~x127 -1 ~x128 -1 ~x129 -1 ~x130 -1 ~x131 -1 ~x132 -1 ~x133 -1 ~x134 -1 ~x135 -1 ~x136 -1 ~x137 -1 ~x138 -1 ~x139 -1 ~x140 -1 ~x141 -1 ~x142 -1 ~x143 -1 ~x144 -1 ~x145 -1 ~x146 -1 ~x147 -1 ~x148 -1 ~x149 -1 ~x150 -1 ~x151 -1 ~x152 -1 ~x153 -1 ~x154 -1 ~x155 -1 ~x156 -1 ~x157 -1 ~x158 -1 ~x159 -1 ~x160 -1 ~x161 -1 ~x162 -1 ~x163 -1 ~x164 -1 ~x165 -1 ~x166 -1 ~x167 -1 ~x168 -1 ~x169 -1 ~x170 -1 ~x171 -1 ~x172 -1 ~x173 -1 ~x174 -1 ~x271 -1 ~x272 -1 ~x273 -1 ~x274 -1 ~x275 -1 ~x276 -1 ~x277 -1 ~x278 -1 ~x279 -1 ~x280 -1 ~x281 -1 ~x282 -1 ~x283 -1 ~x284 -1 ~x285 -1 ~x286 -1 ~x287 -1 ~x288 -1 ~x289 -1 ~x290 -1 ~x291 -1 ~x292 -1 ~x293 -1 ~x294 -1 ~x295 -1 ~x296 -1 ~x297 -1 ~x298 -1 ~x299 -1 ~x300 -1 ~x301 -1 ~x302 -1 ~x303 -1 ~x304 -1 ~x305 -1 ~x306 -1 ~x307 -1 ~x308 -1 ~x309 -1 ~x310 -1 ~x311 -1 ~x312 -1 ~x313 -1 ~x314 -1 ~x315 -1 ~x316 -1 ~x317 -1 ~x318 -1 ~x240 -1 ~x241 -1 ~x242 -1 ~x243 -1 ~x244 -1 ~x245 -1 ~x246 -1 ~x247 -1 ~x248 -1 ~x249 -1 ~x250 -1 ~x251 -1 ~x252 -1 ~x253 -1 ~x254 -1 ~x255 -1 ~x256 -1 ~x257 -1 ~x258 -1 ~x259 -1 ~x260 -1 ~x261 -1 ~x262 -1 ~x263 -1 ~x264 -1 ~x265 -1 ~x266 -1 ~x267 -1 ~x268 -1 ~x269 -1 ~x270 -1 ~x271 -1 ~x272 -1 ~x273 -1 ~x274 -1 ~x275 -1 ~x276 -1 ~x277 -1 ~x278 -1 ~x279 -1 ~x280 -1 ~x281 -1 ~x282 -1 ~x283 -1 ~x284 -1 ~x285 -1 ~x286 -1 ~x287 -1 ~x288 -1 ~x289 -1 ~x290 -1 ~x291 -1 ~x292 -1 ~x293 -1 ~x294 -1 ~x295 -1 ~x296 -1 ~x297 -1 ~x298 -1 ~x299 -1 ~x300 -1 ~x301 -1 ~x302 -1 ~x303 -1 ~x304 -1 ~x305 -1 ~x306 -1 ~x307 -1 ~x308 -1 ~x309 -1 ~x310 -1 ~x311 -1 ~x312 -1 ~x313 -1 ~x314 -1 ~x315 -1 ~x316 -1 ~x317 -1 ~x318 +270 ~x323 >= -269;
 -1 x15 -1 x16 -1 x17 -1 x18 -1 x19 -1 x20 -1 x21 -1 x22 -1 x23 -1 x24 -1 x25 -1 x26 -1 x27 -1 x28 -1 x29 -1 x30 -1 x31 -1 x32 -1 x33 -1 x34 -1 x35 -1 x36 -1 x37 -1 x38 -1 x39 -1 x40 -1 x41 -1 x42 -1 x43 -1 x44 -1 x45 -1 x143 -1 x144 -1 x145 -1 x146 -1 x147 -1 x148 -1 x149 -1 x150 -1 x151 -1 x152 -1 x153 -1 x154 -1 x155 -1 x156 -1 x157 -1 x158 -1 x159 -1 x160 -1 x161 -1 x162 -1 x163 -1 x164 -1 x165 -1 x166 -1 x167 -1 x168 -1 x169 -1 x170 -1 x171 -1 x172 -1 x173 -1 x174 -1 x95 -1 x96 -1 x97 -1 x98 -1 x99 -1 x100 -1 x101 -1 x102 -1 x103 -1 x104 -1 x105 -1 x106 -1 x107 -1 x108 -1 x109 -1 x110 -1 x111 -1 x112 -1 x113 -1 x114 -1 x115 -1 x116 -1 x117 -1 x118 -1 x119 -1 x120 -1 x121 -1 x122 -1 x123 -1 x124 -1 x125 -1 x126 -1 x127 -1 x128 -1 x129 -1 x130 -1 x131 -1 x132 -1 x133 -1 x134 -1 x135 -1 x136 -1 x137 -1 x138 -1 x139 -1 x140 -1 x141 -1 x142 -1 x143 -1 x144 -1 x145 -1 x146 -1 x147 -1 x148 -1 x149 -1 x150 -1 x151 -1 x152 -1 x153 -1 x154 -1 x155 -1 x156 -1 x157 -1 x158 -1 x159 -1 x160 -1 x161 -1 x162 -1 x163 -1 x164 -1 x165 -1 x166 -1 x167 -1 x168 -1 x169 -1 x170 -1 x171 -1 x172 -1 x173 -1 x174 -1 x271 -1 x272 -1 x273 -1 x274 -1 x275 -1 x276 -1 x277 -1 x278 -1 x279 -1 x280 -1 x281 -1 x282 -1 x283 -1 x284 -1 x285 -1 x286 -1 x287 -1 x288 -1 x289 -1 x290 -1 x291 -1 x292 -1 x293 -1 x294 -1 x295 -1 x296 -1 x297 -1 x298 -1 x299 -1 x300 -1 x301 -1 x302 -1 x303 -1 x304 -1 x305 -1 x306 -1 x307 -1 x308 -1 x309 -1 x310 -1 x311 -1 x312 -1 x313 -1 x314 -1 x315 -1 x316 -1 x317 -1 x318 -1 x240 -1 x241 -1 x242 -1 x243 -1 x244 -1 x245 -1 x246 -1 x247 -1 x248 -1 x249 -1 x250 -1 x251 -1 x252 -1 x253 -1 x254 -1 x255 -1 x256 -1 x257 -1 x258 -1 x259 -1 x260 -1 x261 -1 x262 -1 x263 -1 x264 -1 x265 -1 x266 -1 x267 -1 x268 -1 x269 -1 x270 -1 x271 -1 x272 -1 x273 -1 x274 -1 x275 -1 x276 -1 x277 -1 x278 -1 x279 -1 x280 -1 x281 -1 x282 -1 x283 -1 x284 -1 x285 -1 x286 -1 x287 -1 x288 -1 x289 -1 x290 -1 x291 -1 x292 -1 x293 -1 x294 -1 x295 -1 x296 -1 x297 -1 x298 -1 x299 -1 x300 -1 x301 -1 x302 -1 x303 -1 x304 -1 x305 -1 x306 -1 x307 -1 x308 -1 x309 -1 x310 -1 x311 -1 x312 -1 x313 -1 x314 -1 x315 -1 x316 -1 x317 -1 x318 +270 x324 >= 0;
 -1 ~x15 -1 ~x16 -1 ~x17 -1 ~x18 -1 ~x19 -1 ~x20 -1 ~x21 -1 ~x22 -1 ~x23 -1 ~x24 -1 ~x25 -1 ~x26 -1 ~x27 -1 ~x28 -1 ~x29 -1 ~x30 -1 ~x31 -1 ~x32 -1 ~x33 -1 ~x34 -1 ~x35 -1 ~x36 -1 ~x37 -1 ~x38 -1 ~x39 -1 ~x40 -1 ~x41 -1 ~x42 -1 ~x43 -1 ~x44 -1 ~x45 -1 ~x143 -1 ~x144 -1 ~x145 -1 ~x146 -1 ~x147 -1 ~x148 -1 ~x149 -1 ~x150 -1 ~x151 -1 ~x152 -1 ~x153 -1 ~x154 -1 ~x155 -1 ~x156 -1 ~x157 -1 ~x158 -1 ~x159 -1 ~x160 -1 ~x161 -1 ~x162 -1 ~x163 -1 ~x164 -1 ~x165 -1 ~x166 -1 ~x167 -1 ~x168 -1 ~x169 -1 ~x170 -1 ~x171 -1 ~x172 -1 ~x173 -1 ~x174 -1 ~x95 -1 ~x96 -1 ~x97 -1 ~x98 -1 ~x99 -1 ~x100 -1 ~x101 -1 ~x102 -1 ~x103 -1 ~x104 -1 ~x105 -1 ~x106 -1 ~x107 -1 ~x108 -1 ~x109 -1 ~x110 -1 ~x111 -1 ~x112 -1 ~x113 -1 ~x114 -1 ~x115 -1 ~x116 -1 ~x117 -1 ~x118 -1 ~x119 -1 ~x120 -1 ~x121 -1 ~x122 -1 ~x123 -1 ~x124 -1 ~x125 -1 ~x126 -1 ~x127 -1 ~x128 -1 ~x129 -1 ~x130 -1 ~x131 -1 ~x132 -1 ~x133 -1 ~x134 -1 ~x135 -1 ~x136 -1 ~x137 -1 ~x138 -1 ~x139 -1 ~x140 -1 ~x141 -1 ~x142 -1 ~x143 -1 ~x144 -1 ~x145 -1 ~x146 -1 ~x147 -1 ~x148 -1 ~x149 -1 ~x150 -1 ~x151 -1 ~x152 -1 ~x153 -1 ~x154 -1 ~x155 -1 ~x156 -1 ~x157 -1 ~x158 -1 ~x159 -1 ~x160 -1 ~x161 -1 ~x162 -1 ~x163 -1 ~x164 -1 ~x165 -1 ~x166 -1 ~x167 -1 ~x168 -1 ~x169 -1 ~x170 -1 ~x171 -1 ~x172 -1 ~x173 -1 ~x174 -1 ~x271 -1 ~x272 -1 ~x273 -1 ~x274 -1 ~x275 -1 ~x276 -1 ~x277 -1 ~x278 -1 ~x279 -1 ~x280 -1 ~x281 -1 ~x282 -1 ~x283 -1 ~x284 -1 ~x285 -1 ~x286 -1 ~x287 -1 ~x288 -1 ~x289 -1 ~x290 -1 ~x291 -1 ~x292 -1 ~x293 -1 ~x294 -1 ~x295 -1 ~x296 -1 ~x297 -1 ~x298 -1 ~x299 -1 ~x300 -1 ~x301 -1 ~x302 -1 ~x303 -1 ~x304 -1 ~x305 -1 ~x306 -1 ~x307 -1 ~x308 -1 ~x309 -1 ~x310 -1 ~x311 -1 ~x312 -1 ~x313 -1 ~x314 -1 ~x315 -1 ~x316 -1 ~x317 -1 ~x318 -1 ~x240 -1 ~x241 -1 ~x242 -1 ~x243 -1 ~x244 -1 ~x245 -1 ~x246 -1 ~x247 -1 ~x248 -1 ~x249 -1 ~x250 -1 ~x251 -1 ~x252 -1 ~x253 -1 ~x254 -1 ~x255 -1 ~x256 -1 ~x257 -1 ~x258 -1 ~x259 -1 ~x260 -1 ~x261 -1 ~x262 -1 ~x263 -1 ~x264 -1 ~x265 -1 ~x266 -1 ~x267 -1 ~x268 -1 ~x269 -1 ~x270 -1 ~x271 -1 ~x272 -1 ~x273 -1 ~x274 -1 ~x275 -1 ~x276 -1 ~x277 -1 ~x278 -1 ~x279 -1 ~x280 -1 ~x281 -1 ~x282 -1 ~x283 -1 ~x284 -1 ~x285 -1 ~x286 -1 ~x287 -1 ~x288 -1 ~x289 -1 ~x290 -1 ~x291 -1 ~x292 -1 ~x293 -1 ~x294 -1 ~x295 -1 ~x296 -1 ~x297 -1 ~x298 -1 ~x299 -1 ~x300 -1 ~x301 -1 ~x302 -1 ~x303 -1 ~x304 -1 ~x305 -1 ~x306 -1 ~x307 -1 ~x308 -1 ~x309 -1 ~x310 -1 ~x311 -1 ~x312 -1 ~x313 -1 ~x314 -1 ~x315 -1 ~x316 -1 ~x317 -1 ~x318 +270 ~x324 >= -269;
 -1 x2 -1 x16 -1 x17 -1 x18 -1 x19 -1 x20 -1 x21 -1 x22 -1 x23 -1 x24 -1 x25 -1 x26 -1 x27 -1 x28 -1 x29 -1 x30 -1 x31 -1 x32 -1 x33 -1 x34 -1 x35 -1 x36 -1 x37 -1 x38 -1 x39 -1 x40 -1 x41 -1 x42 -1 x43 -1 x44 -1 x45 -1 x143 -1 x144 -1 x145 -1 x146 -1 x147 -1 x148 -1 x149 -1 x150 -1 x151 -1 x152 -1 x153 -1 x154 -1 x155 -1 x156 -1 x157 -1 x158 -1 x159 -1 x160 -1 x161 -1 x162 -1 x163 -1 x164 -1 x165 -1 x166 -1 x167 -1 x168 -1 x169 -1 x170 -1 x171 -1 x172 -1 x173 -1 x174 -1 x95 -1 x96 -1 x97 -1 x98 -1 x99 -1 x100 -1 x101 -1 x102 -1 x103 -1 x104 -1 x105 -1 x106 -1 x107 -1 x108 -1 x109 -1 x110 -1 x111 -1 x112 -1 x113 -1 x114 -1 x115 -1 x116 -1 x117 -1 x118 -1 x119 -1 x120 -1 x121 -1 x122 -1 x123 -1 x124 -1 x125 -1 x126 -1 x127 -1 x128 -1 x129 -1 x130 -1 x131 -1 x132 -1 x133 -1 x134 -1 x135 -1 x136 -1 x137 -1 x138 -1 x139 -1 x140 -1 x141 -1 x142 -1 x143 -1 x144 -1 x145 -1 x146 -1 x147 -1 x148 -1 x149 -1 x150 -1 x151 -1 x152 -1 x153 -1 x154 -1 x155 -1 x156 -1 x157 -1 x158 -1 x159 -1 x160 -1 x161 -1 x162 -1 x163 -1 x164 -1 x165 -1 x166 -1 x167 -1 x168 -1 x169 -1 x170 -1 x171 -1 x172 -1 x173 -1 x174 -1 x271 -1 x272 -1 x273 -1 x274 -1 x275 -1 x276 -1 x277 -1 x278 -1 x279 -1 x280 -1 x281 -1 x282 -1 x283 -1 x284 -1 x285 -1 x286 -1 x287 -1 x288 -1 x289 -1 x290 -1 x291 -1 x292 -1 x293 -1 x294 -1 x295 -1 x296 -1 x297 -1 x298 -1 x299 -1 x300 -1 x301 -1 x302 -1 x303 -1 x304 -1 x305 -1 x306 -1 x307 -1 x308 -1 x309 -1 x310 -1 x311 -1 x312 -1 x313 -1 x314 -1 x315 -1 x316 -1 x317 -1 x318 -1 x240 -1 x241 -1 x242 -1 x243 -1 x244 -1 x245 -1 x246 -1 x247 -1 x248 -1 x249 -1 x250 -1 x251 -1 x252 -1 x253 -1 x254 -1 x255 -1 x256 -1 x257 -1 x258 -1 x259 -1 x260 -1 x261 -1 x262 -1 x263 -1 x264 -1 x265 -1 x266 -1 x267 -1 x268 -1 x269 -1 x270 -1 x271 -1 x272 -1 x273 -1 x274 -1 x275 -1 x276 -1 x277 -1 x278 -1 x279 -1 x280 -1 x281 -1 x282 -1 x283 -1 x284 -1 x285 -1 x286 -1 x287 -1 x288 -1 x289 -1 x290 -1 x291 -1 x292 -1 x293 -1 x294 -1 x295 -1 x296 -1 x297 -1 x298 -1 x299 -1 x300 -1 x301 -1 x302 -1 x303 -1 x304 -1 x305 -1 x306 -1 x307 -1 x308 -1 x309 -1 x310 -1 x311 -1 x312 -1 x313 -1 x314 -1 x315 -1 x316 -1 x317 -1 x318 +270 x325 >= 0;
 -1 ~x2 -1 ~x16 -1 ~x17 -1 ~x18 -1 ~x19 -1 ~x20 -1 ~x21 -1 ~x22 -1 ~x23 -1 ~x24 -1 ~x25 -1 ~x26 -1 ~x27 -1 ~x28 -1 ~x29 -1 ~x30 -1 ~x31 -1 ~x32 -1 ~x33 -1 ~x34 -1 ~x35 -1 ~x36 -1 ~x37 -1 ~x38 -1 ~x39 -1 ~x40 -1 ~x41 -1 ~x42 -1 ~x43 -1 ~x44 -1 ~x45 -1 ~x143 -1 ~x144 -1 ~x145 -1 ~x146 -1 ~x147 -1 ~x148 -1 ~x149 -1 ~x150 -1 ~x151 -1 ~x152 -1 ~x153 -1 ~x154 -1 ~x155 -1 ~x156 -1 ~x157 -1 ~x158 -1 ~x159 -1 ~x160 -1 ~x161 -1 ~x162 -1 ~x163 -1 ~x164 -1 ~x165 -1 ~x166 -1 ~x167 -1 ~x168 -1 ~x169 -1 ~x170 -1 ~x171 -1 ~x172 -1 ~x173 -1 ~x174 -1 ~x95 -1 ~x96 -1 ~x97 -1 ~x98 -1 ~x99 -1 ~x100 -1 ~x101 -1 ~x102 -1 ~x103 -1 ~x104 -1 ~x105 -1 ~x106 -1 ~x107 -1 ~x108 -1 ~x109 -1 ~x110 -1 ~x111 -1 ~x112 -1 ~x113 -1 ~x114 -1 ~x115 -1 ~x116 -1 ~x117 -1 ~x118 -1 ~x119 -1 ~x120 -1 ~x121 -1 ~x122 -1 ~x123 -1 ~x124 -1 ~x125 -1 ~x126 -1 ~x127 -1 ~x128 -1 ~x129 -1 ~x130 -1 ~x131 -1 ~x132 -1 ~x133 -1 ~x134 -1 ~x135 -1 ~x136 -1 ~x137 -1 ~x138 -1 ~x139 -1 ~x140 -1 ~x141 -1 ~x142 -1 ~x143 -1 ~x144 -1 ~x145 -1 ~x146 -1 ~x147 -1 ~x148 -1 ~x149 -1 ~x150 -1 ~x151 -1 ~x152 -1 ~x153 -1 ~x154 -1 ~x155 -1 ~x156 -1 ~x157 -1 ~x158 -1 ~x159 -1 ~x160 -1 ~x161 -1 ~x162 -1 ~x163 -1 ~x164 -1 ~x165 -1 ~x166 -1 ~x167 -1 ~x168 -1 ~x169 -1 ~x170 -1 ~x171 -1 ~x172 -1 ~x173 -1 ~x174 -1 ~x271 -1 ~x272 -1 ~x273 -1 ~x274 -1 ~x275 -1 ~x276 -1 ~x277 -1 ~x278 -1 ~x279 -1 ~x280 -1 ~x281 -1 ~x282 -1 ~x283 -1 ~x284 -1 ~x285 -1 ~x286 -1 ~x287 -1 ~x288 -1 ~x289 -1 ~x290 -1 ~x291 -1 ~x292 -1 ~x293 -1 ~x294 -1 ~x295 -1 ~x296 -1 ~x297 -1 ~x298 -1 ~x299 -1 ~x300 -1 ~x301 -1 ~x302 -1 ~x303 -1 ~x304 -1 ~x305 -1 ~x306 -1 ~x307 -1 ~x308 -1 ~x309 -1 ~x310 -1 ~x311 -1 ~x312 -1 ~x313 -1 ~x314 -1 ~x315 -1 ~x316 -1 ~x317 -1 ~x318 -1 ~x240 -1 ~x241 -1 ~x242 -1 ~x243 -1 ~x244 -1 ~x245 -1 ~x246 -1 ~x247 -1 ~x248 -1 ~x249 -1 ~x250 -1 ~x251 -1 ~x252 -1 ~x253 -1 ~x254 -1 ~x255 -1 ~x256 -1 ~x257 -1 ~x258 -1 ~x259 -1 ~x260 -1 ~x261 -1 ~x262 -1 ~x263 -1 ~x264 -1 ~x265 -1 ~x266 -1 ~x267 -1 ~x268 -1 ~x269 -1 ~x270 -1 ~x271 -1 ~x272 -1 ~x273 -1 ~x274 -1 ~x275 -1 ~x276 -1 ~x277 -1 ~x278 -1 ~x279 -1 ~x280 -1 ~x281 -1 ~x282 -1 ~x283 -1 ~x284 -1 ~x285 -1 ~x286 -1 ~x287 -1 ~x288 -1 ~x289 -1 ~x290 -1 ~x291 -1 ~x292 -1 ~x293 -1 ~x294 -1 ~x295 -1 ~x296 -1 ~x297 -1 ~x298 -1 ~x299 -1 ~x300 -1 ~x301 -1 ~x302 -1 ~x303 -1 ~x304 -1 ~x305 -1 ~x306 -1 ~x307 -1 ~x308 -1 ~x309 -1 ~x310 -1 ~x311 -1 ~x312 -1 ~x313 -1 ~x314 -1 ~x315 -1 ~x316 -1 ~x317 -1 ~x318 +270 ~x325 >= -269;
* Move Conjunctions
 +1 x176 +1 x47 -2 x326 >= 0;
 +1 ~x176 +1 ~x47 -2 ~x326 >= -1;
 +1 x177 +1 x48 -2 x327 >= 0;
 +1 ~x177 +1 ~x48 -2 ~x327 >= -1;
 +1 x178 +1 x49 -2 x328 >= 0;
 +1 ~x178 +1 ~x49 -2 ~x328 >= -1;
 +1 x179 +1 x50 -2 x329 >= 0;
 +1 ~x179 +1 ~x50 -2 ~x329 >= -1;
 +1 x180 +1 x51 -2 x330 >= 0;
 +1 ~x180 +1 ~x51 -2 ~x330 >= -1;
 +1 x181 +1 x52 -2 x331 >= 0;
 +1 ~x181 +1 ~x52 -2 ~x331 >= -1;
 +1 x182 +1 x53 -2 x332 >= 0;
 +1 ~x182 +1 ~x53 -2 ~x332 >= -1;
 +1 x183 +1 x54 -2 x333 >= 0;
 +1 ~x183 +1 ~x54 -2 ~x333 >= -1;
 +1 x184 +1 x55 -2 x334 >= 0;
 +1 ~x184 +1 ~x55 -2 ~x334 >= -1;
 +1 x185 +1 x56 -2 x335 >= 0;
 +1 ~x185 +1 ~x56 -2 ~x335 >= -1;
 +1 x186 +1 x57 -2 x336 >= 0;
 +1 ~x186 +1 ~x57 -2 ~x336 >= -1;
 +1 x187 +1 x58 -2 x337 >= 0;
 +1 ~x187 +1 ~x58 -2 ~x337 >= -1;
 +1 x188 +1 x59 -2 x338 >= 0;
 +1 ~x188 +1 ~x59 -2 ~x338 >= -1;
 +1 x189 +1 x60 -2 x339 >= 0;
 +1 ~x189 +1 ~x60 -2 ~x339 >= -1;
 +1 x190 +1 x61 -2 x340 >= 0;
 +1 ~x190 +1 ~x61 -2 ~x340 >= -1;
 +1 x191 +1 x62 -2 x341 >= 0;
 +1 ~x191 +1 ~x62 -2 ~x341 >= -1;
 +1 x176 +1 x47 -2 x342 >= 0;
 +1 ~x176 +1 ~x47 -2 ~x342 >= -1;
 +1 x177 +1 x48 -2 x343 >= 0;
 +1 ~x177 +1 ~x48 -2 ~x343 >= -1;
 +1 x178 +1 x49 -2 x344 >= 0;
 +1 ~x178 +1 ~x49 -2 ~x344 >= -1;
 +1 x179 +1 x50 -2 x345 >= 0;
 +1 ~x179 +1 ~x50 -2 ~x345 >= -1;
 +1 x180 +1 x51 -2 x346 >= 0;
 +1 ~x180 +1 ~x51 -2 ~x346 >= -1;
 +1 x181 +1 x52 -2 x347 >= 0;
 +1 ~x181 +1 ~x52 -2 ~x347 >= -1;
 +1 x182 +1 x53 -2 x348 >= 0;
 +1 ~x182 +1 ~x53 -2 ~x348 >= -1;
 +1 x183 +1 x54 -2 x349 >= 0;
 +1 ~x183 +1 ~x54 -2 ~x349 >= -1;
 +1 x184 +1 x55 -2 x350 >= 0;
 +1 ~x184 +1 ~x55 -2 ~x350 >= -1;
 +1 x185 +1 x56 -2 x351 >= 0;
 +1 ~x185 +1 ~x56 -2 ~x351 >= -1;
 +1 x186 +1 x57 -2 x352 >= 0;
 +1 ~x186 +1 ~x57 -2 ~x352 >= -1;
 +1 x187 +1 x58 -2 x353 >= 0;
 +1 ~x187 +1 ~x58 -2 ~x353 >= -1;
 +1 x188 +1 x59 -2 x354 >= 0;
 +1 ~x188 +1 ~x59 -2 ~x354 >= -1;
 +1 x189 +1 x60 -2 x355 >= 0;
 +1 ~x189 +1 ~x60 -2 ~x355 >= -1;
 +1 x190 +1 x61 -2 x356 >= 0;
 +1 ~x190 +1 ~x61 -2 ~x356 >= -1;
 +1 x191 +1 x62 -2 x357 >= 0;
 +1 ~x191 +1 ~x62 -2 ~x357 >= -1;
 +1 x176 +1 x47 -2 x358 >= 0;
 +1 ~x176 +1 ~x47 -2 ~x358 >= -1;
 +1 x177 +1 x48 -2 x359 >= 0;
 +1 ~x177 +1 ~x48 -2 ~x359 >= -1;
 +1 x178 +1 x49 -2 x360 >= 0;
 +1 ~x178 +1 ~x49 -2 ~x360 >= -1;
 +1 x179 +1 x50 -2 x361 >= 0;
 +1 ~x179 +1 ~x50 -2 ~x361 >= -1;
 +1 x180 +1 x51 -2 x362 >= 0;
 +1 ~x180 +1 ~x51 -2 ~x362 >= -1;
 +1 x181 +1 x52 -2 x363 >= 0;
 +1 ~x181 +1 ~x52 -2 ~x363 >= -1;
 +1 x182 +1 x53 -2 x364 >= 0;
 +1 ~x182 +1 ~x53 -2 ~x364 >= -1;
 +1 x183 +1 x54 -2 x365 >= 0;
 +1 ~x183 +1 ~x54 -2 ~x365 >= -1;
 +1 x184 +1 x55 -2 x366 >= 0;
 +1 ~x184 +1 ~x55 -2 ~x366 >= -1;
 +1 x185 +1 x56 -2 x367 >= 0;
 +1 ~x185 +1 ~x56 -2 ~x367 >= -1;
 +1 x186 +1 x57 -2 x368 >= 0;
 +1 ~x186 +1 ~x57 -2 ~x368 >= -1;
 +1 x187 +1 x58 -2 x369 >= 0;
 +1 ~x187 +1 ~x58 -2 ~x369 >= -1;
 +1 x188 +1 x59 -2 x370 >= 0;
 +1 ~x188 +1 ~x59 -2 ~x370 >= -1;
 +1 x189 +1 x60 -2 x371 >= 0;
 +1 ~x189 +1 ~x60 -2 ~x371 >= -1;
 +1 x190 +1 x61 -2 x372 >= 0;
 +1 ~x190 +1 ~x61 -2 ~x372 >= -1;
 +1 x191 +1 x62 -2 x373 >= 0;
 +1 ~x191 +1 ~x62 -2 ~x373 >= -1;
 +1 x176 +1 x47 -2 x374 >= 0;
 +1 ~x176 +1 ~x47 -2 ~x374 >= -1;
 +1 x177 +1 x48 -2 x375 >= 0;
 +1 ~x177 +1 ~x48 -2 ~x375 >= -1;
 +1 x178 +1 x49 -2 x376 >= 0;
 +1 ~x178 +1 ~x49 -2 ~x376 >= -1;
 +1 x179 +1 x50 -2 x377 >= 0;
 +1 ~x179 +1 ~x50 -2 ~x377 >= -1;
 +1 x180 +1 x51 -2 x378 >= 0;
 +1 ~x180 +1 ~x51 -2 ~x378 >= -1;
 +1 x181 +1 x52 -2 x379 >= 0;
 +1 ~x181 +1 ~x52 -2 ~x379 >= -1;
 +1 x182 +1 x53 -2 x380 >= 0;
 +1 ~x182 +1 ~x53 -2 ~x380 >= -1;
 +1 x183 +1 x54 -2 x381 >= 0;
 +1 ~x183 +1 ~x54 -2 ~x381 >= -1;
 +1 x184 +1 x55 -2 x382 >= 0;
 +1 ~x184 +1 ~x55 -2 ~x382 >= -1;
 +1 x185 +1 x56 -2 x383 >= 0;
 +1 ~x185 +1 ~x56 -2 ~x383 >= -1;
 +1 x186 +1 x57 -2 x384 >= 0;
 +1 ~x186 +1 ~x57 -2 ~x384 >= -1;
 +1 x187 +1 x58 -2 x385 >= 0;
 +1 ~x187 +1 ~x58 -2 ~x385 >= -1;
 +1 x188 +1 x59 -2 x386 >= 0;
 +1 ~x188 +1 ~x59 -2 ~x386 >= -1;
 +1 x189 +1 x60 -2 x387 >= 0;
 +1 ~x189 +1 ~x60 -2 ~x387 >= -1;
 +1 x190 +1 x61 -2 x388 >= 0;
 +1 ~x190 +1 ~x61 -2 ~x388 >= -1;
 +1 x191 +1 x62 -2 x389 >= 0;
 +1 ~x191 +1 ~x62 -2 ~x389 >= -1;
* Valid Assignment
 +1 x1 +1 x2 +1 x3 +1 x4 +1 x5 +1 x6 +1 x7 +1 x8 +1 x9 +1 x10 +1 x11 +1 x12 +1 x13 +1 x14 +1 x15 +1 x46 = 1;
 +1 x47 +1 x48 +1 x49 +1 x50 +1 x51 +1 x52 +1 x53 +1 x54 +1 x55 +1 x56 +1 x57 +1 x58 +1 x59 +1 x60 +1 x61 +1 x62 +1 x175 = 1;
 +1 x176 +1 x177 +1 x178 +1 x179 +1 x180 +1 x181 +1 x182 +1 x183 +1 x184 +1 x185 +1 x186 +1 x187 +1 x188 +1 x189 +1 x190 +1 x191 +1 x319 = 1;
* Valid Usage
 -1 x46 +1 x16 +1 x17 +1 x18 +1 x19 +1 x20 +1 x21 +1 x22 +1 x23 +1 x24 +1 x25 +1 x26 +1 x27 +1 x28 +1 x29 +1 x30 = 0;
 -1 x46 +1 x31 +1 x32 +1 x33 +1 x34 +1 x35 +1 x36 +1 x37 +1 x38 +1 x39 +1 x40 +1 x41 +1 x42 +1 x43 +1 x44 +1 x45 = 0;
 -1 x175 +1 x143 +1 x144 +1 x145 +1 x146 +1 x147 +1 x148 +1 x149 +1 x150 +1 x151 +1 x152 +1 x153 +1 x154 +1 x155 +1 x156 +1 x157 +1 x158 = 0;
 -1 x175 +1 x159 +1 x160 +1 x161 +1 x162 +1 x163 +1 x164 +1 x165 +1 x166 +1 x167 +1 x168 +1 x169 +1 x170 +1 x171 +1 x172 +1 x173 +1 x174 = 0;
 -1 x175 +1 x95 +1 x96 +1 x97 +1 x98 +1 x99 +1 x100 +1 x101 +1 x102 +1 x103 +1 x104 +1 x105 +1 x106 +1 x107 +1 x108 +1 x109 +1 x110 = 0;
 -1 x175 +1 x111 +1 x112 +1 x113 +1 x114 +1 x115 +1 x116 +1 x117 +1 x118 +1 x119 +1 x120 +1 x121 +1 x122 +1 x123 +1 x124 +1 x125 +1 x126 = 0;
 -1 x175 +1 x127 +1 x128 +1 x129 +1 x130 +1 x131 +1 x132 +1 x133 +1 x134 +1 x135 +1 x136 +1 x137 +1 x138 +1 x139 +1 x140 +1 x141 +1 x142 = 0;
 -1 x175 +1 x143 +1 x144 +1 x145 +1 x146 +1 x147 +1 x148 +1 x149 +1 x150 +1 x151 +1 x152 +1 x153 +1 x154 +1 x155 +1 x156 +1 x157 +1 x158 = 0;
 -1 x175 +1 x159 +1 x160 +1 x161 +1 x162 +1 x163 +1 x164 +1 x165 +1 x166 +1 x167 +1 x168 +1 x169 +1 x170 +1 x171 +1 x172 +1 x173 +1 x174 = 0;
 -1 x319 +1 x271 +1 x272 +1 x273 +1 x274 +1 x275 +1 x276 +1 x277 +1 x278 +1 x279 +1 x280 +1 x281 +1 x282 +1 x283 +1 x284 +1 x285 +1 x286 = 0;
 -1 x319 +1 x287 +1 x288 +1 x289 +1 x290 +1 x291 +1 x292 +1 x293 +1 x294 +1 x295 +1 x296 +1 x297 +1 x298 +1 x299 +1 x300 +1 x301 +1 x302 = 0;
 -1 x319 +1 x303 +1 x304 +1 x305 +1 x306 +1 x307 +1 x308 +1 x309 +1 x310 +1 x311 +1 x312 +1 x313 +1 x314 +1 x315 +1 x316 +1 x317 +1 x318 = 0;
 -1 x319 +1 x240 +1 x241 +1 x242 +1 x243 +1 x244 +1 x245 +1 x246 +1 x247 +1 x248 +1 x249 +1 x250 +1 x251 +1 x252 +1 x253 +1 x254 = 0;
 -1 x319 +1 x255 +1 x256 +1 x257 +1 x258 +1 x259 +1 x260 +1 x261 +1 x262 +1 x263 +1 x264 +1 x265 +1 x266 +1 x267 +1 x268 +1 x269 +1 x270 = 0;
 -1 x319 +1 x271 +1 x272 +1 x273 +1 x274 +1 x275 +1 x276 +1 x277 +1 x278 +1 x279 +1 x280 +1 x281 +1 x282 +1 x283 +1 x284 +1 x285 +1 x286 = 0;
 -1 x319 +1 x287 +1 x288 +1 x289 +1 x290 +1 x291 +1 x292 +1 x293 +1 x294 +1 x295 +1 x296 +1 x297 +1 x298 +1 x299 +1 x300 +1 x301 +1 x302 = 0;
 -1 x319 +1 x303 +1 x304 +1 x305 +1 x306 +1 x307 +1 x308 +1 x309 +1 x310 +1 x311 +1 x312 +1 x313 +1 x314 +1 x315 +1 x316 +1 x317 +1 x318 = 0;
* Conflict Constraints
 +1 ~x176 +1 ~x47 >= 1;
 +1 ~x177 +1 ~x48 >= 1;
 +1 ~x178 +1 ~x49 >= 1;
 +1 ~x179 +1 ~x50 >= 1;
 +1 ~x180 +1 ~x51 >= 1;
 +1 ~x181 +1 ~x52 >= 1;
 +1 ~x182 +1 ~x53 >= 1;
 +1 ~x183 +1 ~x54 >= 1;
 +1 ~x184 +1 ~x55 >= 1;
 +1 ~x185 +1 ~x56 >= 1;
 +1 ~x186 +1 ~x57 >= 1;
 +1 ~x187 +1 ~x58 >= 1;
 +1 ~x188 +1 ~x59 >= 1;
 +1 ~x189 +1 ~x60 >= 1;
 +1 ~x190 +1 ~x61 >= 1;
 +1 ~x191 +1 ~x62 >= 1;
* Usage Constraints
 +1 ~x111 +1 ~x287 >= 1;
 +1 ~x112 +1 ~x288 >= 1;
 +1 ~x113 +1 ~x289 >= 1;
 +1 ~x114 +1 ~x290 >= 1;
 +1 ~x115 +1 ~x291 >= 1;
 +1 ~x116 +1 ~x292 >= 1;
 +1 ~x117 +1 ~x293 >= 1;
 +1 ~x118 +1 ~x294 >= 1;
 +1 ~x119 +1 ~x295 >= 1;
 +1 ~x120 +1 ~x296 >= 1;
 +1 ~x121 +1 ~x297 >= 1;
 +1 ~x122 +1 ~x298 >= 1;
 +1 ~x123 +1 ~x299 >= 1;
 +1 ~x124 +1 ~x300 >= 1;
 +1 ~x125 +1 ~x301 >= 1;
 +1 ~x126 +1 ~x302 >= 1;
 +1 ~x111 +1 ~x176 >= 1;
 +1 ~x112 +1 ~x177 >= 1;
 +1 ~x113 +1 ~x178 >= 1;
 +1 ~x114 +1 ~x179 >= 1;
 +1 ~x115 +1 ~x180 >= 1;
 +1 ~x116 +1 ~x181 >= 1;
 +1 ~x117 +1 ~x182 >= 1;
 +1 ~x118 +1 ~x183 >= 1;
 +1 ~x119 +1 ~x184 >= 1;
 +1 ~x120 +1 ~x185 >= 1;
 +1 ~x121 +1 ~x186 >= 1;
 +1 ~x122 +1 ~x187 >= 1;
 +1 ~x123 +1 ~x188 >= 1;
 +1 ~x124 +1 ~x189 >= 1;
 +1 ~x125 +1 ~x190 >= 1;
 +1 ~x126 +1 ~x191 >= 1;
 +1 ~x271 +1 ~x47 >= 1;
 +1 ~x272 +1 ~x48 >= 1;
 +1 ~x273 +1 ~x49 >= 1;
 +1 ~x274 +1 ~x50 >= 1;
 +1 ~x275 +1 ~x51 >= 1;
 +1 ~x276 +1 ~x52 >= 1;
 +1 ~x277 +1 ~x53 >= 1;
 +1 ~x278 +1 ~x54 >= 1;
 +1 ~x279 +1 ~x55 >= 1;
 +1 ~x280 +1 ~x56 >= 1;
 +1 ~x281 +1 ~x57 >= 1;
 +1 ~x282 +1 ~x58 >= 1;
 +1 ~x283 +1 ~x59 >= 1;
 +1 ~x284 +1 ~x60 >= 1;
 +1 ~x285 +1 ~x61 >= 1;
 +1 ~x286 +1 ~x62 >= 1;
 +1 ~x287 +1 ~x111 >= 1;
 +1 ~x288 +1 ~x112 >= 1;
 +1 ~x289 +1 ~x113 >= 1;
 +1 ~x290 +1 ~x114 >= 1;
 +1 ~x291 +1 ~x115 >= 1;
 +1 ~x292 +1 ~x116 >= 1;
 +1 ~x293 +1 ~x117 >= 1;
 +1 ~x294 +1 ~x118 >= 1;
 +1 ~x295 +1 ~x119 >= 1;
 +1 ~x296 +1 ~x120 >= 1;
 +1 ~x297 +1 ~x121 >= 1;
 +1 ~x298 +1 ~x122 >= 1;
 +1 ~x299 +1 ~x123 >= 1;
 +1 ~x300 +1 ~x124 >= 1;
 +1 ~x301 +1 ~x125 >= 1;
 +1 ~x302 +1 ~x126 >= 1;
 +1 ~x287 +1 ~x47 >= 1;
 +1 ~x288 +1 ~x48 >= 1;
 +1 ~x289 +1 ~x49 >= 1;
 +1 ~x290 +1 ~x50 >= 1;
 +1 ~x291 +1 ~x51 >= 1;
 +1 ~x292 +1 ~x52 >= 1;
 +1 ~x293 +1 ~x53 >= 1;
 +1 ~x294 +1 ~x54 >= 1;
 +1 ~x295 +1 ~x55 >= 1;
 +1 ~x296 +1 ~x56 >= 1;
 +1 ~x297 +1 ~x57 >= 1;
 +1 ~x298 +1 ~x58 >= 1;
 +1 ~x299 +1 ~x59 >= 1;
 +1 ~x300 +1 ~x60 >= 1;
 +1 ~x301 +1 ~x61 >= 1;
 +1 ~x302 +1 ~x62 >= 1;
 +1 ~x255 +1 ~x47 >= 1;
 +1 ~x256 +1 ~x48 >= 1;
 +1 ~x257 +1 ~x49 >= 1;
 +1 ~x258 +1 ~x50 >= 1;
 +1 ~x259 +1 ~x51 >= 1;
 +1 ~x260 +1 ~x52 >= 1;
 +1 ~x261 +1 ~x53 >= 1;
 +1 ~x262 +1 ~x54 >= 1;
 +1 ~x263 +1 ~x55 >= 1;
 +1 ~x264 +1 ~x56 >= 1;
 +1 ~x265 +1 ~x57 >= 1;
 +1 ~x266 +1 ~x58 >= 1;
 +1 ~x267 +1 ~x59 >= 1;
 +1 ~x268 +1 ~x60 >= 1;
 +1 ~x269 +1 ~x61 >= 1;
 +1 ~x270 +1 ~x62 >= 1;
 +1 ~x271 +1 ~x47 >= 1;
 +1 ~x272 +1 ~x48 >= 1;
 +1 ~x273 +1 ~x49 >= 1;
 +1 ~x274 +1 ~x50 >= 1;
 +1 ~x275 +1 ~x51 >= 1;
 +1 ~x276 +1 ~x52 >= 1;
 +1 ~x277 +1 ~x53 >= 1;
 +1 ~x278 +1 ~x54 >= 1;
 +1 ~x279 +1 ~x55 >= 1;
 +1 ~x280 +1 ~x56 >= 1;
 +1 ~x281 +1 ~x57 >= 1;
 +1 ~x282 +1 ~x58 >= 1;
 +1 ~x283 +1 ~x59 >= 1;
 +1 ~x284 +1 ~x60 >= 1;
 +1 ~x285 +1 ~x61 >= 1;
 +1 ~x286 +1 ~x62 >= 1;
 +1 ~x287 +1 ~x47 >= 1;
 +1 ~x288 +1 ~x48 >= 1;
 +1 ~x289 +1 ~x49 >= 1;
 +1 ~x290 +1 ~x50 >= 1;
 +1 ~x291 +1 ~x51 >= 1;
 +1 ~x292 +1 ~x52 >= 1;
 +1 ~x293 +1 ~x53 >= 1;
 +1 ~x294 +1 ~x54 >= 1;
 +1 ~x295 +1 ~x55 >= 1;
 +1 ~x296 +1 ~x56 >= 1;
 +1 ~x297 +1 ~x57 >= 1;
 +1 ~x298 +1 ~x58 >= 1;
 +1 ~x299 +1 ~x59 >= 1;
 +1 ~x300 +1 ~x60 >= 1;
 +1 ~x301 +1 ~x61 >= 1;
 +1 ~x302 +1 ~x62 >= 1;
